;; translated from ./bv/nest-if5.c.vmt
;; original benchmark available at: https://es-static.fbk.eu/people/griggio/ic3ia/index.html
;; author: Alberto Griggio <griggio@fbk.eu>
(set-logic HORN)
(declare-fun state (Bool Bool Bool Bool (_ BitVec 32) (_ BitVec 32) (_ BitVec 32) (_ BitVec 32) (_ BitVec 32) (_ BitVec 32)) Bool)
(assert (forall ((|.PC.1| Bool) (|.PC.0| Bool) (|.PC.0.next| Bool) (|.PC.1.next| Bool) (|.PC.2.next| Bool) (|.PC.3.next| Bool) (|i__1$main| (_ BitVec 32)) (|i__1$main.next| (_ BitVec 32)) (|n__5$main| (_ BitVec 32)) (|__RET__$main.next| (_ BitVec 32)) (|__RET__$main| (_ BitVec 32)) (|NONDET| (_ BitVec 32)) (|NONDET.next| (_ BitVec 32)) (|k__3$main| (_ BitVec 32)) (|k__3$main.next| (_ BitVec 32)) (|l__7$main| (_ BitVec 32)) (|l__7$main.next| (_ BitVec 32)) (|n__5$main.next| (_ BitVec 32)) (|__NONDET_INLINE_INIT__6__6$main#0| (_ BitVec 32)) (|__NONDET_INLINE_INIT__8__7$main#1| (_ BitVec 32)) (|.PC.3| Bool) (|.PC.2| Bool)) (=> (let ((.def_18 (not .PC.3)))
(let ((.def_15 (not .PC.2)))
(let ((.def_12 (not .PC.1)))
(let ((.def_10 (not .PC.0)))
(let ((.def_13 (and .def_10 .def_12)))
(let ((.def_16 (and .def_13 .def_15)))
(let ((.def_19 (and .def_16 .def_18)))
.def_19))))))) (state |.PC.0| |.PC.1| |.PC.2| |.PC.3| |__RET__$main| |i__1$main| |NONDET| |n__5$main| |k__3$main| |l__7$main|))))
(assert (forall ((|.PC.1| Bool) (|.PC.0| Bool) (|.PC.0.next| Bool) (|.PC.1.next| Bool) (|.PC.2.next| Bool) (|.PC.3.next| Bool) (|i__1$main| (_ BitVec 32)) (|i__1$main.next| (_ BitVec 32)) (|n__5$main| (_ BitVec 32)) (|__RET__$main.next| (_ BitVec 32)) (|__RET__$main| (_ BitVec 32)) (|NONDET| (_ BitVec 32)) (|NONDET.next| (_ BitVec 32)) (|k__3$main| (_ BitVec 32)) (|k__3$main.next| (_ BitVec 32)) (|l__7$main| (_ BitVec 32)) (|l__7$main.next| (_ BitVec 32)) (|n__5$main.next| (_ BitVec 32)) (|__NONDET_INLINE_INIT__6__6$main#0| (_ BitVec 32)) (|__NONDET_INLINE_INIT__8__7$main#1| (_ BitVec 32)) (|.PC.3| Bool) (|.PC.2| Bool)) (=> (and (state |.PC.0| |.PC.1| |.PC.2| |.PC.3| |__RET__$main| |i__1$main| |NONDET| |n__5$main| |k__3$main| |l__7$main|) (let ((.def_122 (and .PC.0 .PC.1)))
(let ((.def_187 (and .PC.2 .def_122)))
(let ((.def_18 (not .PC.3)))
(let ((.def_188 (and .def_18 .def_187)))
(let ((.def_76 (and .PC.1.next .PC.0.next)))
(let ((.def_162 (and .PC.2.next .def_76)))
(let ((.def_53 (not .PC.3.next)))
(let ((.def_163 (and .def_53 .def_162)))
(let ((.def_189 (and .def_163 .def_188)))
(let ((.def_143 (bvadd (_ bv1 32) i__1$main)))
(let ((.def_144 (= i__1$main.next .def_143)))
(let ((.def_109 (bvslt i__1$main n__5$main)))
(let ((.def_178 (and .def_109 .def_144)))
(let ((.def_39 (= __RET__$main __RET__$main.next)))
(let ((.def_179 (and .def_39 .def_178)))
(let ((.def_68 (= NONDET.next NONDET)))
(let ((.def_180 (and .def_68 .def_179)))
(let ((.def_70 (= k__3$main.next k__3$main)))
(let ((.def_181 (and .def_70 .def_180)))
(let ((.def_72 (= l__7$main.next l__7$main)))
(let ((.def_182 (and .def_72 .def_181)))
(let ((.def_74 (= n__5$main.next n__5$main)))
(let ((.def_183 (and .def_74 .def_182)))
(let ((.def_117 (not .PC.0.next)))
(let ((.def_48 (not .PC.1.next)))
(let ((.def_118 (and .def_48 .def_117)))
(let ((.def_119 (and .PC.2.next .def_118)))
(let ((.def_120 (and .def_53 .def_119)))
(let ((.def_184 (and .def_120 .def_183)))
(let ((.def_12 (not .PC.1)))
(let ((.def_10 (not .PC.0)))
(let ((.def_13 (and .def_10 .def_12)))
(let ((.def_174 (and .def_13 .PC.2)))
(let ((.def_175 (and .def_18 .def_174)))
(let ((.def_185 (and .def_175 .def_184)))
(let ((.def_110 (not .def_109)))
(let ((.def_167 (and .def_39 .def_110)))
(let ((.def_43 (= i__1$main i__1$main.next)))
(let ((.def_168 (and .def_43 .def_167)))
(let ((.def_169 (and .def_68 .def_168)))
(let ((.def_170 (and .def_70 .def_169)))
(let ((.def_171 (and .def_72 .def_170)))
(let ((.def_172 (and .def_74 .def_171)))
(let ((.def_50 (and .def_48 .PC.0.next)))
(let ((.def_92 (and .PC.2.next .def_50)))
(let ((.def_93 (and .def_53 .def_92)))
(let ((.def_173 (and .def_93 .def_172)))
(let ((.def_176 (and .def_173 .def_175)))
(let ((.def_157 (and .def_39 .def_43)))
(let ((.def_158 (and .def_68 .def_157)))
(let ((.def_159 (and .def_70 .def_158)))
(let ((.def_160 (and .def_72 .def_159)))
(let ((.def_161 (and .def_74 .def_160)))
(let ((.def_164 (and .def_161 .def_163)))
(let ((.def_154 (and .def_10 .PC.1)))
(let ((.def_155 (and .PC.2 .def_154)))
(let ((.def_156 (and .def_18 .def_155)))
(let ((.def_165 (and .def_156 .def_164)))
(let ((.def_127 (bvslt i__1$main (_ bv1 32))))
(let ((.def_141 (not .def_127)))
(let ((.def_142 (and .def_109 .def_141)))
(let ((.def_145 (and .def_142 .def_144)))
(let ((.def_146 (and .def_39 .def_145)))
(let ((.def_147 (and .def_68 .def_146)))
(let ((.def_148 (and .def_70 .def_147)))
(let ((.def_149 (and .def_72 .def_148)))
(let ((.def_150 (and .def_74 .def_149)))
(let ((.def_46 (not .PC.2.next)))
(let ((.def_77 (and .def_46 .def_76)))
(let ((.def_78 (and .def_53 .def_77)))
(let ((.def_151 (and .def_78 .def_150)))
(let ((.def_15 (not .PC.2)))
(let ((.def_123 (and .def_15 .def_122)))
(let ((.def_124 (and .def_18 .def_123)))
(let ((.def_152 (and .def_124 .def_151)))
(let ((.def_135 (and .PC.1.next .def_117)))
(let ((.def_136 (and .PC.2.next .def_135)))
(let ((.def_137 (and .def_53 .def_136)))
(let ((.def_128 (and .def_109 .def_127)))
(let ((.def_129 (and .def_39 .def_128)))
(let ((.def_130 (and .def_43 .def_129)))
(let ((.def_131 (and .def_68 .def_130)))
(let ((.def_132 (and .def_70 .def_131)))
(let ((.def_133 (and .def_72 .def_132)))
(let ((.def_134 (and .def_74 .def_133)))
(let ((.def_138 (and .def_134 .def_137)))
(let ((.def_139 (and .def_124 .def_138)))
(let ((.def_65 (= i__1$main.next l__7$main)))
(let ((.def_111 (and .def_65 .def_110)))
(let ((.def_112 (and .def_39 .def_111)))
(let ((.def_113 (and .def_68 .def_112)))
(let ((.def_114 (and .def_70 .def_113)))
(let ((.def_115 (and .def_72 .def_114)))
(let ((.def_116 (and .def_74 .def_115)))
(let ((.def_121 (and .def_116 .def_120)))
(let ((.def_125 (and .def_121 .def_124)))
(let ((.def_99 (bvadd (_ bv1 32) k__3$main)))
(let ((.def_100 (= k__3$main.next .def_99)))
(let ((.def_101 (and .def_39 .def_100)))
(let ((.def_102 (and .def_43 .def_101)))
(let ((.def_103 (and .def_68 .def_102)))
(let ((.def_104 (and .def_72 .def_103)))
(let ((.def_105 (and .def_74 .def_104)))
(let ((.def_51 (and .def_46 .def_50)))
(let ((.def_54 (and .def_51 .def_53)))
(let ((.def_106 (and .def_54 .def_105)))
(let ((.def_80 (and .PC.0 .def_12)))
(let ((.def_97 (and .PC.2 .def_80)))
(let ((.def_98 (and .def_18 .def_97)))
(let ((.def_107 (and .def_98 .def_106)))
(let ((.def_62 (bvslt k__3$main n__5$main)))
(let ((.def_58 (= NONDET (_ bv0 32))))
(let ((.def_85 (and .def_58 .def_62)))
(let ((.def_86 (and .def_39 .def_85)))
(let ((.def_87 (and .def_43 .def_86)))
(let ((.def_88 (and .def_68 .def_87)))
(let ((.def_89 (and .def_70 .def_88)))
(let ((.def_90 (and .def_72 .def_89)))
(let ((.def_91 (and .def_74 .def_90)))
(let ((.def_94 (and .def_91 .def_93)))
(let ((.def_81 (and .def_15 .def_80)))
(let ((.def_82 (and .def_18 .def_81)))
(let ((.def_95 (and .def_82 .def_94)))
(let ((.def_59 (not .def_58)))
(let ((.def_63 (and .def_59 .def_62)))
(let ((.def_66 (and .def_63 .def_65)))
(let ((.def_67 (and .def_39 .def_66)))
(let ((.def_69 (and .def_67 .def_68)))
(let ((.def_71 (and .def_69 .def_70)))
(let ((.def_73 (and .def_71 .def_72)))
(let ((.def_75 (and .def_73 .def_74)))
(let ((.def_79 (and .def_75 .def_78)))
(let ((.def_83 (and .def_79 .def_82)))
(let ((.def_35 (= k__3$main.next (_ bv1 32))))
(let ((.def_31 (bvslt (_ bv0 32) l__7$main.next)))
(let ((.def_28 (= NONDET.next (_ bv0 32))))
(let ((.def_25 (= n__5$main.next |__NONDET_INLINE_INIT__6__6$main#0|)))
(let ((.def_29 (and .def_25 .def_28)))
(let ((.def_22 (= l__7$main.next |__NONDET_INLINE_INIT__8__7$main#1|)))
(let ((.def_30 (and .def_22 .def_29)))
(let ((.def_32 (and .def_30 .def_31)))
(let ((.def_36 (and .def_32 .def_35)))
(let ((.def_40 (and .def_36 .def_39)))
(let ((.def_44 (and .def_40 .def_43)))
(let ((.def_55 (and .def_44 .def_54)))
(let ((.def_16 (and .def_13 .def_15)))
(let ((.def_19 (and .def_16 .def_18)))
(let ((.def_56 (and .def_19 .def_55)))
(let ((.def_84 (or .def_56 .def_83)))
(let ((.def_96 (or .def_84 .def_95)))
(let ((.def_108 (or .def_96 .def_107)))
(let ((.def_126 (or .def_108 .def_125)))
(let ((.def_140 (or .def_126 .def_139)))
(let ((.def_153 (or .def_140 .def_152)))
(let ((.def_166 (or .def_153 .def_165)))
(let ((.def_177 (or .def_166 .def_176)))
(let ((.def_186 (or .def_177 .def_185)))
(let ((.def_190 (or .def_186 .def_189)))
.def_190))))))))))))))))))))))))))))))))))))))))))))))))))))))))))))))))))))))))))))))))))))))))))))))))))))))))))))))))))))))))))))))))))))))))))))))))))))))))))))))) (state |.PC.0.next| |.PC.1.next| |.PC.2.next| |.PC.3.next| |__RET__$main.next| |i__1$main.next| |NONDET.next| |n__5$main.next| |k__3$main.next| |l__7$main.next|))))
(assert (forall ((|.PC.1| Bool) (|.PC.0| Bool) (|.PC.0.next| Bool) (|.PC.1.next| Bool) (|.PC.2.next| Bool) (|.PC.3.next| Bool) (|i__1$main| (_ BitVec 32)) (|i__1$main.next| (_ BitVec 32)) (|n__5$main| (_ BitVec 32)) (|__RET__$main.next| (_ BitVec 32)) (|__RET__$main| (_ BitVec 32)) (|NONDET| (_ BitVec 32)) (|NONDET.next| (_ BitVec 32)) (|k__3$main| (_ BitVec 32)) (|k__3$main.next| (_ BitVec 32)) (|l__7$main| (_ BitVec 32)) (|l__7$main.next| (_ BitVec 32)) (|n__5$main.next| (_ BitVec 32)) (|__NONDET_INLINE_INIT__6__6$main#0| (_ BitVec 32)) (|__NONDET_INLINE_INIT__8__7$main#1| (_ BitVec 32)) (|.PC.3| Bool) (|.PC.2| Bool)) (=> (state |.PC.0| |.PC.1| |.PC.2| |.PC.3| |__RET__$main| |i__1$main| |NONDET| |n__5$main| |k__3$main| |l__7$main|) (let ((.def_122 (and .PC.0 .PC.1)))
(let ((.def_187 (and .PC.2 .def_122)))
(let ((.def_18 (not .PC.3)))
(let ((.def_188 (and .def_18 .def_187)))
(let ((.def_191 (not .def_188)))
.def_191))))))))
(check-sat)
